78     	18     	-7.489321     	-3.744661     	-3.744661
78     	18     	-3.744661     	-7.489321     	-3.744661
78     	18     	-3.744661     	-3.744661     	-7.489321
78     	18     	-7.489321     	-7.489321     	0.000000
78     	18     	-7.489321     	-3.744661     	3.744661
78     	18     	-3.744661     	-7.489321     	3.744661
78     	18     	-3.744661     	-3.744661     	0.000000
78     	18     	-3.744661     	-3.744661     	7.489321
78     	18     	-7.489321     	0.000000     	-7.489321
78     	18     	-7.489321     	3.744661     	-3.744661
78     	18     	-3.744661     	0.000000     	-3.744661
78     	18     	-3.744661     	3.744661     	-7.489321
78     	18     	-7.489321     	0.000000     	0.000000
78     	18     	-7.489321     	3.744661     	3.744661
78     	18     	-3.744661     	0.000000     	3.744661
78     	18     	-3.744661     	3.744661     	0.000000
78     	18     	-7.489321     	0.000000     	7.489321
78     	18     	-3.744661     	3.744661     	7.489321
78     	18     	-3.744661     	7.489321     	-3.744661
78     	18     	-7.489321     	7.489321     	0.000000
78     	18     	-3.744661     	7.489321     	3.744661
78     	18     	0.000000     	-7.489321     	-7.489321
78     	18     	0.000000     	-3.744661     	-3.744661
78     	18     	3.744661     	-7.489321     	-3.744661
78     	18     	3.744661     	-3.744661     	-7.489321
78     	18     	0.000000     	-7.489321     	0.000000
78     	18     	0.000000     	-3.744661     	3.744661
78     	18     	3.744661     	-7.489321     	3.744661
78     	18     	3.744661     	-3.744661     	0.000000
78     	18     	0.000000     	-7.489321     	7.489321
78     	18     	3.744661     	-3.744661     	7.489321
78     	18     	0.000000     	0.000000     	-7.489321
78     	18     	0.000000     	3.744661     	-3.744661
78     	18     	3.744661     	0.000000     	-3.744661
78     	18     	3.744661     	3.744661     	-7.489321
78     	18     	0.000000     	0.000000     	0.000000
78     	18     	0.000000     	3.744661     	3.744661
78     	18     	3.744661     	0.000000     	3.744661
78     	18     	3.744661     	3.744661     	0.000000
78     	18     	0.000000     	0.000000     	7.489321
78     	18     	3.744661     	3.744661     	7.489321
78     	18     	0.000000     	7.489321     	-7.489321
78     	18     	3.744661     	7.489321     	-3.744661
78     	18     	0.000000     	7.489321     	0.000000
78     	18     	3.744661     	7.489321     	3.744661
78     	18     	0.000000     	7.489321     	7.489321
78     	18     	7.489321     	-3.744661     	-3.744661
78     	18     	7.489321     	-7.489321     	0.000000
78     	18     	7.489321     	-3.744661     	3.744661
78     	18     	7.489321     	0.000000     	-7.489321
78     	18     	7.489321     	3.744661     	-3.744661
78     	18     	7.489321     	0.000000     	0.000000
78     	18     	7.489321     	3.744661     	3.744661
78     	18     	7.489321     	0.000000     	7.489321
78     	18     	7.489321     	7.489321     	0.000000
